c User generated cnf file
p cnf 13 66
7 8 -11 0 
2 4 -2 0 
-13 3 5 0 
-9 3 9 0 
-11 8 9 0 
8 7 -12 0 
-9 11 10 0 
10 13 -12 0 
-11 2 5 0 
6 -1 8 0 
13 10 -3 0 
12 4 -10 0 
8 -10 8 0 
-5 10 10 0 
4 2 -11 0 
-3 6 2 0 
-7 12 13 0 
8 -9 1 0 
-12 5 13 0 
9 6 -7 0 
11 8 -6 0 
4 -8 11 0 
-12 6 10 0 
4 -8 1 0 
4 9 -7 0 
6 10 -7 0 
4 -7 13 0 
-12 7 5 0 
11 13 -5 0 
-3 9 5 0 
10 4 -7 0 
8 9 -9 0 
6 -6 8 0 
8 -2 12 0 
-12 3 8 0 
10 12 -10 0 
9 5 -9 0 
-3 2 8 0 
8 -13 8 0 
7 -2 13 0 
-4 2 7 0 
8 12 -9 0 
-6 1 6 0 
5 13 -2 0 
5 -4 7 0 
6 13 -2 0 
-1 11 6 0 
12 4 -2 0 
12 -7 6 0 
9 -2 10 0 
-9 12 7 0 
1 4 -13 0 
-1 4 3 0 
2 2 -7 0 
5 -8 9 0 
8 -9 11 0 
13 13 -3 0 
2 -12 9 0 
13 -12 9 0 
13 2 -7 0 
2 13 -2 0 
-11 8 1 0 
7 -8 12 0 
-13 13 5 0 
4 2 -5 0 
-3 7 5 0 
